173248
173109
173082
173023
172802
172788
172854
172752
172729
172706
172700
172632
172671
172735
172695
172756
172708
172673
172696
172685
172702
172733
172731
172642
172675
172672
172647
172686
172699
172702
172748
172686
172658
172707
172651
172631
172626
172561
172660
172616
172647
172616
172622
172637
172614
172649
172624
172549
172728
172725
172747
172686
172702
172634
172675
172672
172722
172688
172714
172703
172703
172731
172665
172706
172653
172629
172571
172628
172702
172669
172706
172696
172673
172615
172675
172662
172579
172661
172598
172650
172669
172696
172602
172636
172595
172679
172598
172707
172688
172697
172693
172601
172659
172703
172725
172711
172788
172690
172664
172662
169755
1025.08